; sample line 3
(set-logic QF_LIA) ; Quantifier-Free Linear Integer Arithmetic (or QF_LRA for Reals)
(declare-const n0 Int)
(declare-const n1 Int)
(declare-const n2 Int)
(declare-const n3 Int)
(assert (= (+ n0 n1 n2) 10))
(assert (= (+ n0 n2 n3) 11))
(assert (= (+ n0 n2 n3) 11))
(assert (= (+ n0 n1) 5))
(assert (= (+ n0 n1 n2) 10))
(assert (= (+ n2) 5))
(check-sat)
(get-model)
